p cnf 13 27
8 3 -13 -6 0
-2 1 12 0
1 -10 8 4 3 11 -13 -7 6 -9 0
-4 -7 11 -1 0
-1 10 7 0
10 2 0
4 -6 1 9 12 0
-6 -10 12 5 -7 13 -4 3 1 0
1 12 0
10 4 0
1 4 5 0
-12 -7 -11 13 6 -9 5 -3 -8 2 4 -10 0
11 -12 0
13 12 -6 -8 5 0
-12 3 -1 11 0
-11 -7 -4 -6 -13 -2 -3 -1 -12 -10 -5 0
-8 9 13 7 0
1 -4 -9 11 12 8 3 -2 -13 -10 7 6 0
-8 3 -12 0
-2 -4 0
9 11 -8 0
10 -7 2 0
-3 8 2 -1 0
10 -4 2 -13 11 6 -5 9 -7 3 12 -8 0
-1 4 0
-4 -12 -7 -9 -2 -5 13 -8 11 3 10 -6 0
-3 -5 -10 4 0
